50, 2476343
100070, 227
100095, 963
100085, 127
100050, 705
100019, 86
100015, 248
100053, 1000
100051, 210
100007, 642
100091, 460
100051, 454
100070, 495
100022, 193
100024, 831
100001, 90
100034, 235
100026, 20
100042, 267
100038, 408
100084, 903
100090, 380
100017, 114
100040, 259
100016, 992
100066, 64
100098, 621
100020, 378
100077, 661
100030, 339
100001, 692
100077, 498
100034, 650
100017, 902
100043, 582
100023, 143
100041, 65
100045, 947
100042, 489
100059, 194
100029, 947
100009, 579
100008, 729
100010, 881
100052, 286
100036, 357
100081, 879
100050, 135
100071, 765
100098, 98
100006, 691
